NAME:  br17
TYPE: ATSP
COMMENT: 17 city problem (Repetto)
DIMENSION:  17
EDGE_WEIGHT_TYPE: EXPLICIT
EDGE_WEIGHT_FORMAT: FULL_MATRIX
EDGE_WEIGHT_SECTION
          1    2    3    4    5    6    7    8    9   10   11   12   13   14   15   16  17

1          -    3    5   48   48    8    8    5    5    3    3    0    3    5    8    8   5
2         3    -    3   48   48    8    8    5    5    0    0    3    0    3    8    8   5
3         5    3    -   72   72   48   48   24   24    3    3    5    3    0   48   48  24
4        48   48   74    -    0    6    6   12   12   48   48   48   48   74    6    6  12
5        48   48   74    0    -    6    6   12   12   48   48   48   48   74    6    6  12
6         8    8   50    6    6    -    0    8    8    8    8    8    8   50    0    0   8
7         8    8   50    6    6    0    -    8    8    8    8    8    8   50    0    0   8
8         5    5   26   12   12    8    8    -    0    5    5    5    5   26    8    8   0
9         5    5   26   12   12    8    8    0    -    5    5    5    5   26    8    8   0
10        3    0    3   48   48    8    8    5    5    -    0    3    0    3    8    8   5
11        3    0    3   48   48    8    8    5    5    0    -    3    0    3    8    8   5
12        0    3    5   48   48    8    8    5    5    3    3    -    3    5    8    8   5
13        3    0    3   48   48    8    8    5    5    0    0    3    -    3    8    8   5
14        5    3    0   72   72   48   48   24   24    3    3    5    3    -   48   48  24
15        8    8   50    6    6    0    0    8    8    8    8    8    8   50    -    0   8
16        8    8   50    6    6    0    0    8    8    8    8    8    8   50    0    -   8
17        5    5   26   12   12    8    8    0    0    5    5    5    5   26    8    8   -
EOF
